p tw 60 67
1 2
2 13
3 52
4 5
5 6
6 7
7 8
8 9
9 55
10 11
11 12
12 14
13 24
14 15
15 16
16 55
17 18
18 19
19 20
20 21
21 22
22 23
23 25
24 35
24 17
25 26
25 27
26 55
27 28
28 29
29 30
29 32
30 31
31 34
32 33
33 34
34 36
35 46
36 37
37 38
38 39
39 40
39 50
40 41
41 42
42 43
43 44
44 45
45 47
46 57
46 17
47 48
48 49
48 50
49 55
50 51
51 55
52 53
53 54
54 55
55 56
57 58
58 59
58 4
59 60
60 3
60 10
